27
1
21
2
3
17
4
6
9
10
1
3
3
9
7
1
8
11
4
13
19
12
5
5
17
6
6
16
4
7
14
11
8
2
23
15
5
7
11
14
18
2
8
10
8
1
7
17
13
24
9
8
16
14
22
20
17
15
3
19
24
18
21
10
3
11
8
3
23
26
15
16
12
27
12
20
17
15
21
13
16
18
25
25
18
19
24
22
20
26
23
9
4
6
27
26
24
22
19
2
21
